# Solution for model JobShopModel
# Objective value = 15652
y[0,0,5] 1
y[0,0,6] 0
y[0,1,3] 0
y[0,1,4] 1
y[0,1,6] 0
y[0,2,1] 1
y[0,2,3] 0
y[0,2,6] 0
y[0,3,0] 0
y[0,3,1] 0
y[0,3,2] 1
y[1,0,4] 1
y[1,0,6] 0
y[1,1,4] 0
y[1,1,5] 1
y[1,1,6] 0
y[1,2,1] 1
y[1,2,2] 0
y[1,3,0] 1
y[1,3,2] 0
y[2,0,5] 0
y[2,0,6] 1
y[2,1,3] 1
y[2,1,4] 0
y[2,1,5] 0
y[2,2,2] 0
y[2,2,3] 1
y[2,2,6] 0
y[2,3,0] 1
y[2,3,1] 0
y[3,0,4] 0
y[3,0,5] 1
y[3,1,3] 1
y[3,1,5] 0
y[3,2,2] 1
y[3,2,4] 0
y[3,3,0] 1
y[3,3,1] 0
y[4,0,3] 1
y[4,0,5] 0
y[4,1,1] 0
y[4,1,4] 0
y[4,1,5] 1
y[4,2,3] 0
y[4,2,4] 0
y[4,2,6] 1
y[4,3,0] 1
y[4,3,1] 0
y[4,3,2] 0
y[5,0,3] 0
y[5,0,6] 1
y[5,1,4] 1
y[5,1,5] 0
y[5,1,6] 0
y[5,2,2] 1
y[5,2,3] 0
y[5,2,4] 0
y[5,3,1] 1
y[5,3,2] 0
y[5,3,3] 0
y[6,0,4] 0
y[6,0,6] 1
y[6,1,4] 1
y[6,1,5] 0
y[6,1,6] 0
y[6,2,2] 1
y[6,2,4] 0
y[6,3,1] 0
y[6,3,2] 1
y[7,0,5] 0
y[7,0,6] 1
y[7,1,4] 0
y[7,1,5] 1
y[7,1,6] 0
y[7,2,4] 1
y[7,2,5] 0
y[7,3,2] 1
y[7,3,3] 0
x[0,0,0,0] 0
x[0,0,0,1] 0
x[0,0,0,2] 0
x[0,0,0,3] 0
x[0,0,1,0] 0
x[0,0,1,1] 0
x[0,0,1,2] 0
x[0,0,1,3] 0
x[0,0,2,0] 0
x[0,0,2,1] 0
x[0,0,2,2] 0
x[0,0,2,3] 0
x[0,0,3,0] 0
x[0,0,3,1] 0
x[0,0,3,2] 0
x[0,0,3,3] 0
x[0,0,4,0] 1
x[0,0,4,1] 1
x[0,0,4,2] 0
x[0,0,4,3] 0
x[0,0,5,0] 0
x[0,0,5,1] 0
x[0,0,5,2] 0
x[0,0,5,3] 0
x[0,0,6,0] 0
x[0,0,6,1] 0
x[0,0,6,2] 0
x[0,0,6,3] 0
x[0,0,7,0] 0
x[0,0,7,1] 0
x[0,0,7,2] 0
x[0,0,7,3] 0
x[0,1,0,0] 1
x[0,1,0,1] 0
x[0,1,0,2] 0
x[0,1,0,3] 0
x[0,1,1,0] 0
x[0,1,1,1] 0
x[0,1,1,2] 0
x[0,1,1,3] 0
x[0,1,2,0] 0
x[0,1,2,1] 0
x[0,1,2,2] 0
x[0,1,2,3] 0
x[0,1,3,0] 0
x[0,1,3,1] 0
x[0,1,3,2] 0
x[0,1,3,3] 0
x[0,1,4,0] 0
x[0,1,4,1] 0
x[0,1,4,2] 1
x[0,1,4,3] 0
x[0,1,5,0] 0
x[0,1,5,1] 1
x[0,1,5,2] 0
x[0,1,5,3] 0
x[0,1,6,0] 0
x[0,1,6,1] 0
x[0,1,6,2] 0
x[0,1,6,3] 0
x[0,1,7,0] 1
x[0,1,7,1] 0
x[0,1,7,2] 0
x[0,1,7,3] 0
x[0,2,0,0] 1
x[0,2,0,1] 1
x[0,2,0,2] 0
x[0,2,0,3] 0
x[0,2,1,0] 0
x[0,2,1,1] 0
x[0,2,1,2] 0
x[0,2,1,3] 0
x[0,2,2,0] 0
x[0,2,2,1] 0
x[0,2,2,2] 1
x[0,2,2,3] 0
x[0,2,3,0] 0
x[0,2,3,1] 0
x[0,2,3,2] 0
x[0,2,3,3] 0
x[0,2,4,0] 0
x[0,2,4,1] 0
x[0,2,4,2] 0
x[0,2,4,3] 0
x[0,2,5,0] 0
x[0,2,5,1] 0
x[0,2,5,2] 0
x[0,2,5,3] 1
x[0,2,6,0] 0
x[0,2,6,1] 0
x[0,2,6,2] 0
x[0,2,6,3] 0
x[0,2,7,0] 0
x[0,2,7,1] 0
x[0,2,7,2] 0
x[0,2,7,3] 0
x[0,3,0,0] 0
x[0,3,0,1] 0
x[0,3,0,2] 1
x[0,3,0,3] 0
x[0,3,1,0] 0
x[0,3,1,1] 0
x[0,3,1,2] 0
x[0,3,1,3] 0
x[0,3,2,0] 0
x[0,3,2,1] 0
x[0,3,2,2] 0
x[0,3,2,3] 0
x[0,3,3,0] 0
x[0,3,3,1] 0
x[0,3,3,2] 0
x[0,3,3,3] 0
x[0,3,4,0] 0
x[0,3,4,1] 0
x[0,3,4,2] 0
x[0,3,4,3] 0
x[0,3,5,0] 0
x[0,3,5,1] 0
x[0,3,5,2] 1
x[0,3,5,3] 0
x[0,3,6,0] 0
x[0,3,6,1] 0
x[0,3,6,2] 0
x[0,3,6,3] 0
x[0,3,7,0] 0
x[0,3,7,1] 0
x[0,3,7,2] 0
x[0,3,7,3] 0
x[1,0,0,0] 0
x[1,0,0,1] 0
x[1,0,0,2] 0
x[1,0,0,3] 0
x[1,0,1,0] 0
x[1,0,1,1] 1
x[1,0,1,2] 0
x[1,0,1,3] 0
x[1,0,2,0] 0
x[1,0,2,1] 0
x[1,0,2,2] 0
x[1,0,2,3] 0
x[1,0,3,0] 0
x[1,0,3,1] 0
x[1,0,3,2] 0
x[1,0,3,3] 0
x[1,0,4,0] 0
x[1,0,4,1] 0
x[1,0,4,2] 1
x[1,0,4,3] 0
x[1,0,5,0] 0
x[1,0,5,1] 1
x[1,0,5,2] 0
x[1,0,5,3] 0
x[1,0,6,0] 0
x[1,0,6,1] 0
x[1,0,6,2] 1
x[1,0,6,3] 0
x[1,0,7,0] 0
x[1,0,7,1] 0
x[1,0,7,2] 0
x[1,0,7,3] 0
x[1,1,0,0] 0
x[1,1,0,1] 0
x[1,1,0,2] 0
x[1,1,0,3] 0
x[1,1,1,0] 0
x[1,1,1,1] 0
x[1,1,1,2] 0
x[1,1,1,3] 0
x[1,1,2,0] 1
x[1,1,2,1] 0
x[1,1,2,2] 0
x[1,1,2,3] 0
x[1,1,3,0] 0
x[1,1,3,1] 0
x[1,1,3,2] 0
x[1,1,3,3] 0
x[1,1,4,0] 1
x[1,1,4,1] 1
x[1,1,4,2] 0
x[1,1,4,3] 0
x[1,1,5,0] 1
x[1,1,5,1] 0
x[1,1,5,2] 0
x[1,1,5,3] 0
x[1,1,6,0] 0
x[1,1,6,1] 0
x[1,1,6,2] 0
x[1,1,6,3] 0
x[1,1,7,0] 0
x[1,1,7,1] 0
x[1,1,7,2] 0
x[1,1,7,3] 0
x[1,2,0,0] 0
x[1,2,0,1] 0
x[1,2,0,2] 0
x[1,2,0,3] 0
x[1,2,1,0] 0
x[1,2,1,1] 0
x[1,2,1,2] 0
x[1,2,1,3] 0
x[1,2,2,0] 0
x[1,2,2,1] 0
x[1,2,2,2] 0
x[1,2,2,3] 0
x[1,2,3,0] 0
x[1,2,3,1] 0
x[1,2,3,2] 0
x[1,2,3,3] 0
x[1,2,4,0] 0
x[1,2,4,1] 0
x[1,2,4,2] 0
x[1,2,4,3] 0
x[1,2,5,0] 0
x[1,2,5,1] 0
x[1,2,5,2] 0
x[1,2,5,3] 1
x[1,2,6,0] 0
x[1,2,6,1] 0
x[1,2,6,2] 0
x[1,2,6,3] 0
x[1,2,7,0] 0
x[1,2,7,1] 0
x[1,2,7,2] 0
x[1,2,7,3] 0
x[1,3,0,0] 0
x[1,3,0,1] 0
x[1,3,0,2] 0
x[1,3,0,3] 0
x[1,3,1,0] 0
x[1,3,1,1] 0
x[1,3,1,2] 1
x[1,3,1,3] 0
x[1,3,2,0] 0
x[1,3,2,1] 0
x[1,3,2,2] 0
x[1,3,2,3] 1
x[1,3,3,0] 0
x[1,3,3,1] 0
x[1,3,3,2] 0
x[1,3,3,3] 0
x[1,3,4,0] 0
x[1,3,4,1] 0
x[1,3,4,2] 0
x[1,3,4,3] 1
x[1,3,5,0] 0
x[1,3,5,1] 0
x[1,3,5,2] 1
x[1,3,5,3] 0
x[1,3,6,0] 0
x[1,3,6,1] 0
x[1,3,6,2] 0
x[1,3,6,3] 0
x[1,3,7,0] 0
x[1,3,7,1] 0
x[1,3,7,2] 0
x[1,3,7,3] 1
x[2,0,0,0] 0
x[2,0,0,1] 0
x[2,0,0,2] 0
x[2,0,0,3] 0
x[2,0,1,0] 0
x[2,0,1,1] 0
x[2,0,1,2] 0
x[2,0,1,3] 0
x[2,0,2,0] 0
x[2,0,2,1] 0
x[2,0,2,2] 1
x[2,0,2,3] 0
x[2,0,3,0] 0
x[2,0,3,1] 0
x[2,0,3,2] 0
x[2,0,3,3] 0
x[2,0,4,0] 0
x[2,0,4,1] 0
x[2,0,4,2] 1
x[2,0,4,3] 0
x[2,0,5,0] 1
x[2,0,5,1] 0
x[2,0,5,2] 0
x[2,0,5,3] 0
x[2,0,6,0] 0
x[2,0,6,1] 1
x[2,0,6,2] 0
x[2,0,6,3] 0
x[2,0,7,0] 0
x[2,0,7,1] 0
x[2,0,7,2] 0
x[2,0,7,3] 0
x[2,1,0,0] 0
x[2,1,0,1] 0
x[2,1,0,2] 0
x[2,1,0,3] 0
x[2,1,1,0] 0
x[2,1,1,1] 0
x[2,1,1,2] 0
x[2,1,1,3] 0
x[2,1,2,0] 1
x[2,1,2,1] 0
x[2,1,2,2] 1
x[2,1,2,3] 0
x[2,1,3,0] 0
x[2,1,3,1] 0
x[2,1,3,2] 0
x[2,1,3,3] 0
x[2,1,4,0] 1
x[2,1,4,1] 1
x[2,1,4,2] 0
x[2,1,4,3] 0
x[2,1,5,0] 0
x[2,1,5,1] 0
x[2,1,5,2] 0
x[2,1,5,3] 0
x[2,1,6,0] 0
x[2,1,6,1] 0
x[2,1,6,2] 0
x[2,1,6,3] 0
x[2,1,7,0] 0
x[2,1,7,1] 0
x[2,1,7,2] 0
x[2,1,7,3] 0
x[2,2,0,0] 0
x[2,2,0,1] 0
x[2,2,0,2] 0
x[2,2,0,3] 0
x[2,2,1,0] 0
x[2,2,1,1] 0
x[2,2,1,2] 0
x[2,2,1,3] 0
x[2,2,2,0] 0
x[2,2,2,1] 0
x[2,2,2,2] 0
x[2,2,2,3] 0
x[2,2,3,0] 0
x[2,2,3,1] 0
x[2,2,3,2] 0
x[2,2,3,3] 0
x[2,2,4,0] 1
x[2,2,4,1] 0
x[2,2,4,2] 0
x[2,2,4,3] 0
x[2,2,5,0] 0
x[2,2,5,1] 0
x[2,2,5,2] 0
x[2,2,5,3] 0
x[2,2,6,0] 0
x[2,2,6,1] 0
x[2,2,6,2] 0
x[2,2,6,3] 0
x[2,2,7,0] 0
x[2,2,7,1] 0
x[2,2,7,2] 0
x[2,2,7,3] 0
x[2,3,0,0] 0
x[2,3,0,1] 0
x[2,3,0,2] 0
x[2,3,0,3] 0
x[2,3,1,0] 0
x[2,3,1,1] 0
x[2,3,1,2] 0
x[2,3,1,3] 0
x[2,3,2,0] 0
x[2,3,2,1] 0
x[2,3,2,2] 0
x[2,3,2,3] 0
x[2,3,3,0] 0
x[2,3,3,1] 0
x[2,3,3,2] 0
x[2,3,3,3] 0
x[2,3,4,0] 0
x[2,3,4,1] 0
x[2,3,4,2] 0
x[2,3,4,3] 1
x[2,3,5,0] 0
x[2,3,5,1] 0
x[2,3,5,2] 0
x[2,3,5,3] 1
x[2,3,6,0] 0
x[2,3,6,1] 0
x[2,3,6,2] 0
x[2,3,6,3] 0
x[2,3,7,0] 0
x[2,3,7,1] 0
x[2,3,7,2] 0
x[2,3,7,3] 0
x[3,0,0,0] 0
x[3,0,0,1] 0
x[3,0,0,2] 0
x[3,0,0,3] 0
x[3,0,1,0] 0
x[3,0,1,1] 0
x[3,0,1,2] 0
x[3,0,1,3] 0
x[3,0,2,0] 0
x[3,0,2,1] 0
x[3,0,2,2] 0
x[3,0,2,3] 0
x[3,0,3,0] 0
x[3,0,3,1] 0
x[3,0,3,2] 0
x[3,0,3,3] 0
x[3,0,4,0] 1
x[3,0,4,1] 1
x[3,0,4,2] 1
x[3,0,4,3] 0
x[3,0,5,0] 0
x[3,0,5,1] 1
x[3,0,5,2] 0
x[3,0,5,3] 0
x[3,0,6,0] 0
x[3,0,6,1] 1
x[3,0,6,2] 1
x[3,0,6,3] 0
x[3,0,7,0] 0
x[3,0,7,1] 0
x[3,0,7,2] 1
x[3,0,7,3] 0
x[3,1,0,0] 0
x[3,1,0,1] 0
x[3,1,0,2] 0
x[3,1,0,3] 0
x[3,1,1,0] 0
x[3,1,1,1] 0
x[3,1,1,2] 0
x[3,1,1,3] 0
x[3,1,2,0] 0
x[3,1,2,1] 0
x[3,1,2,2] 0
x[3,1,2,3] 0
x[3,1,3,0] 1
x[3,1,3,1] 0
x[3,1,3,2] 0
x[3,1,3,3] 0
x[3,1,4,0] 1
x[3,1,4,1] 1
x[3,1,4,2] 0
x[3,1,4,3] 0
x[3,1,5,0] 0
x[3,1,5,1] 0
x[3,1,5,2] 0
x[3,1,5,3] 0
x[3,1,6,0] 0
x[3,1,6,1] 1
x[3,1,6,2] 0
x[3,1,6,3] 0
x[3,1,7,0] 0
x[3,1,7,1] 1
x[3,1,7,2] 0
x[3,1,7,3] 0
x[3,2,0,0] 0
x[3,2,0,1] 0
x[3,2,0,2] 0
x[3,2,0,3] 0
x[3,2,1,0] 0
x[3,2,1,1] 0
x[3,2,1,2] 0
x[3,2,1,3] 0
x[3,2,2,0] 0
x[3,2,2,1] 0
x[3,2,2,2] 0
x[3,2,2,3] 0
x[3,2,3,0] 1
x[3,2,3,1] 0
x[3,2,3,2] 0
x[3,2,3,3] 0
x[3,2,4,0] 0
x[3,2,4,1] 0
x[3,2,4,2] 0
x[3,2,4,3] 0
x[3,2,5,0] 0
x[3,2,5,1] 1
x[3,2,5,2] 1
x[3,2,5,3] 0
x[3,2,6,0] 0
x[3,2,6,1] 0
x[3,2,6,2] 1
x[3,2,6,3] 1
x[3,2,7,0] 0
x[3,2,7,1] 0
x[3,2,7,2] 0
x[3,2,7,3] 0
x[3,3,0,0] 0
x[3,3,0,1] 0
x[3,3,0,2] 0
x[3,3,0,3] 0
x[3,3,1,0] 0
x[3,3,1,1] 0
x[3,3,1,2] 0
x[3,3,1,3] 0
x[3,3,2,0] 0
x[3,3,2,1] 0
x[3,3,2,2] 0
x[3,3,2,3] 0
x[3,3,3,0] 0
x[3,3,3,1] 0
x[3,3,3,2] 0
x[3,3,3,3] 0
x[3,3,4,0] 0
x[3,3,4,1] 0
x[3,3,4,2] 0
x[3,3,4,3] 1
x[3,3,5,0] 0
x[3,3,5,1] 0
x[3,3,5,2] 0
x[3,3,5,3] 0
x[3,3,6,0] 0
x[3,3,6,1] 0
x[3,3,6,2] 0
x[3,3,6,3] 0
x[3,3,7,0] 0
x[3,3,7,1] 0
x[3,3,7,2] 0
x[3,3,7,3] 0
x[4,0,0,0] 0
x[4,0,0,1] 0
x[4,0,0,2] 0
x[4,0,0,3] 0
x[4,0,1,0] 0
x[4,0,1,1] 0
x[4,0,1,2] 0
x[4,0,1,3] 0
x[4,0,2,0] 0
x[4,0,2,1] 0
x[4,0,2,2] 0
x[4,0,2,3] 0
x[4,0,3,0] 0
x[4,0,3,1] 0
x[4,0,3,2] 0
x[4,0,3,3] 0
x[4,0,4,0] 0
x[4,0,4,1] 0
x[4,0,4,2] 0
x[4,0,4,3] 0
x[4,0,5,0] 0
x[4,0,5,1] 0
x[4,0,5,2] 0
x[4,0,5,3] 1
x[4,0,6,0] 0
x[4,0,6,1] 1
x[4,0,6,2] 0
x[4,0,6,3] 0
x[4,0,7,0] 0
x[4,0,7,1] 0
x[4,0,7,2] 0
x[4,0,7,3] 1
x[4,1,0,0] 0
x[4,1,0,1] 0
x[4,1,0,2] 0
x[4,1,0,3] 0
x[4,1,1,0] 0
x[4,1,1,1] 0
x[4,1,1,2] 0
x[4,1,1,3] 0
x[4,1,2,0] 0
x[4,1,2,1] 0
x[4,1,2,2] 0
x[4,1,2,3] 0
x[4,1,3,0] 0
x[4,1,3,1] 0
x[4,1,3,2] 0
x[4,1,3,3] 0
x[4,1,4,0] 1
x[4,1,4,1] 0
x[4,1,4,2] 0
x[4,1,4,3] 0
x[4,1,5,0] 0
x[4,1,5,1] 0
x[4,1,5,2] 0
x[4,1,5,3] 1
x[4,1,6,0] 0
x[4,1,6,1] 0
x[4,1,6,2] 0
x[4,1,6,3] 0
x[4,1,7,0] 0
x[4,1,7,1] 0
x[4,1,7,2] 0
x[4,1,7,3] 0
x[4,2,0,0] 0
x[4,2,0,1] 0
x[4,2,0,2] 0
x[4,2,0,3] 0
x[4,2,1,0] 0
x[4,2,1,1] 0
x[4,2,1,2] 0
x[4,2,1,3] 0
x[4,2,2,0] 0
x[4,2,2,1] 0
x[4,2,2,2] 0
x[4,2,2,3] 0
x[4,2,3,0] 0
x[4,2,3,1] 0
x[4,2,3,2] 0
x[4,2,3,3] 0
x[4,2,4,0] 1
x[4,2,4,1] 1
x[4,2,4,2] 0
x[4,2,4,3] 0
x[4,2,5,0] 0
x[4,2,5,1] 0
x[4,2,5,2] 0
x[4,2,5,3] 0
x[4,2,6,0] 0
x[4,2,6,1] 0
x[4,2,6,2] 0
x[4,2,6,3] 0
x[4,2,7,0] 0
x[4,2,7,1] 0
x[4,2,7,2] 0
x[4,2,7,3] 0
x[4,3,0,0] 0
x[4,3,0,1] 0
x[4,3,0,2] 0
x[4,3,0,3] 0
x[4,3,1,0] 0
x[4,3,1,1] 0
x[4,3,1,2] 0
x[4,3,1,3] 0
x[4,3,2,0] 0
x[4,3,2,1] 0
x[4,3,2,2] 0
x[4,3,2,3] 0
x[4,3,3,0] 0
x[4,3,3,1] 0
x[4,3,3,2] 0
x[4,3,3,3] 0
x[4,3,4,0] 0
x[4,3,4,1] 1
x[4,3,4,2] 0
x[4,3,4,3] 0
x[4,3,5,0] 0
x[4,3,5,1] 0
x[4,3,5,2] 0
x[4,3,5,3] 0
x[4,3,6,0] 0
x[4,3,6,1] 0
x[4,3,6,2] 0
x[4,3,6,3] 0
x[4,3,7,0] 0
x[4,3,7,1] 0
x[4,3,7,2] 0
x[4,3,7,3] 0
x[5,0,0,0] 0
x[5,0,0,1] 0
x[5,0,0,2] 0
x[5,0,0,3] 0
x[5,0,1,0] 0
x[5,0,1,1] 0
x[5,0,1,2] 0
x[5,0,1,3] 0
x[5,0,2,0] 0
x[5,0,2,1] 0
x[5,0,2,2] 0
x[5,0,2,3] 0
x[5,0,3,0] 0
x[5,0,3,1] 0
x[5,0,3,2] 0
x[5,0,3,3] 0
x[5,0,4,0] 0
x[5,0,4,1] 0
x[5,0,4,2] 0
x[5,0,4,3] 0
x[5,0,5,0] 0
x[5,0,5,1] 0
x[5,0,5,2] 0
x[5,0,5,3] 0
x[5,0,6,0] 0
x[5,0,6,1] 0
x[5,0,6,2] 0
x[5,0,6,3] 0
x[5,0,7,0] 0
x[5,0,7,1] 0
x[5,0,7,2] 0
x[5,0,7,3] 0
x[5,1,0,0] 0
x[5,1,0,1] 0
x[5,1,0,2] 0
x[5,1,0,3] 0
x[5,1,1,0] 0
x[5,1,1,1] 0
x[5,1,1,2] 0
x[5,1,1,3] 0
x[5,1,2,0] 0
x[5,1,2,1] 0
x[5,1,2,2] 0
x[5,1,2,3] 0
x[5,1,3,0] 0
x[5,1,3,1] 0
x[5,1,3,2] 0
x[5,1,3,3] 0
x[5,1,4,0] 0
x[5,1,4,1] 0
x[5,1,4,2] 0
x[5,1,4,3] 0
x[5,1,5,0] 1
x[5,1,5,1] 0
x[5,1,5,2] 0
x[5,1,5,3] 0
x[5,1,6,0] 0
x[5,1,6,1] 0
x[5,1,6,2] 0
x[5,1,6,3] 0
x[5,1,7,0] 0
x[5,1,7,1] 0
x[5,1,7,2] 0
x[5,1,7,3] 0
x[5,2,0,0] 0
x[5,2,0,1] 0
x[5,2,0,2] 0
x[5,2,0,3] 0
x[5,2,1,0] 0
x[5,2,1,1] 0
x[5,2,1,2] 0
x[5,2,1,3] 0
x[5,2,2,0] 0
x[5,2,2,1] 0
x[5,2,2,2] 0
x[5,2,2,3] 0
x[5,2,3,0] 0
x[5,2,3,1] 0
x[5,2,3,2] 0
x[5,2,3,3] 0
x[5,2,4,0] 0
x[5,2,4,1] 0
x[5,2,4,2] 0
x[5,2,4,3] 0
x[5,2,5,0] 1
x[5,2,5,1] 1
x[5,2,5,2] 0
x[5,2,5,3] 0
x[5,2,6,0] 0
x[5,2,6,1] 0
x[5,2,6,2] 0
x[5,2,6,3] 0
x[5,2,7,0] 0
x[5,2,7,1] 0
x[5,2,7,2] 0
x[5,2,7,3] 0
x[5,3,0,0] 0
x[5,3,0,1] 0
x[5,3,0,2] 0
x[5,3,0,3] 0
x[5,3,1,0] 0
x[5,3,1,1] 0
x[5,3,1,2] 0
x[5,3,1,3] 0
x[5,3,2,0] 0
x[5,3,2,1] 0
x[5,3,2,2] 0
x[5,3,2,3] 0
x[5,3,3,0] 0
x[5,3,3,1] 0
x[5,3,3,2] 0
x[5,3,3,3] 0
x[5,3,4,0] 0
x[5,3,4,1] 0
x[5,3,4,2] 0
x[5,3,4,3] 0
x[5,3,5,0] 1
x[5,3,5,1] 0
x[5,3,5,2] 1
x[5,3,5,3] 0
x[5,3,6,0] 0
x[5,3,6,1] 0
x[5,3,6,2] 0
x[5,3,6,3] 0
x[5,3,7,0] 0
x[5,3,7,1] 0
x[5,3,7,2] 0
x[5,3,7,3] 1
x[6,0,0,0] 0
x[6,0,0,1] 0
x[6,0,0,2] 0
x[6,0,0,3] 0
x[6,0,1,0] 0
x[6,0,1,1] 0
x[6,0,1,2] 0
x[6,0,1,3] 0
x[6,0,2,0] 0
x[6,0,2,1] 0
x[6,0,2,2] 0
x[6,0,2,3] 0
x[6,0,3,0] 0
x[6,0,3,1] 0
x[6,0,3,2] 0
x[6,0,3,3] 0
x[6,0,4,0] 0
x[6,0,4,1] 0
x[6,0,4,2] 0
x[6,0,4,3] 0
x[6,0,5,0] 0
x[6,0,5,1] 0
x[6,0,5,2] 0
x[6,0,5,3] 0
x[6,0,6,0] 0
x[6,0,6,1] 0
x[6,0,6,2] 0
x[6,0,6,3] 0
x[6,0,7,0] 0
x[6,0,7,1] 0
x[6,0,7,2] 0
x[6,0,7,3] 0
x[6,1,0,0] 0
x[6,1,0,1] 0
x[6,1,0,2] 0
x[6,1,0,3] 0
x[6,1,1,0] 0
x[6,1,1,1] 0
x[6,1,1,2] 0
x[6,1,1,3] 0
x[6,1,2,0] 0
x[6,1,2,1] 0
x[6,1,2,2] 0
x[6,1,2,3] 0
x[6,1,3,0] 0
x[6,1,3,1] 0
x[6,1,3,2] 0
x[6,1,3,3] 0
x[6,1,4,0] 0
x[6,1,4,1] 0
x[6,1,4,2] 0
x[6,1,4,3] 0
x[6,1,5,0] 0
x[6,1,5,1] 0
x[6,1,5,2] 0
x[6,1,5,3] 0
x[6,1,6,0] 1
x[6,1,6,1] 0
x[6,1,6,2] 0
x[6,1,6,3] 0
x[6,1,7,0] 0
x[6,1,7,1] 0
x[6,1,7,2] 0
x[6,1,7,3] 0
x[6,2,0,0] 0
x[6,2,0,1] 0
x[6,2,0,2] 0
x[6,2,0,3] 0
x[6,2,1,0] 0
x[6,2,1,1] 0
x[6,2,1,2] 0
x[6,2,1,3] 0
x[6,2,2,0] 0
x[6,2,2,1] 0
x[6,2,2,2] 0
x[6,2,2,3] 0
x[6,2,3,0] 0
x[6,2,3,1] 0
x[6,2,3,2] 0
x[6,2,3,3] 0
x[6,2,4,0] 0
x[6,2,4,1] 0
x[6,2,4,2] 0
x[6,2,4,3] 0
x[6,2,5,0] 0
x[6,2,5,1] 0
x[6,2,5,2] 0
x[6,2,5,3] 0
x[6,2,6,0] 1
x[6,2,6,1] 1
x[6,2,6,2] 0
x[6,2,6,3] 1
x[6,2,7,0] 0
x[6,2,7,1] 0
x[6,2,7,2] 0
x[6,2,7,3] 0
x[6,3,0,0] 0
x[6,3,0,1] 0
x[6,3,0,2] 0
x[6,3,0,3] 0
x[6,3,1,0] 0
x[6,3,1,1] 0
x[6,3,1,2] 0
x[6,3,1,3] 0
x[6,3,2,0] 0
x[6,3,2,1] 0
x[6,3,2,2] 0
x[6,3,2,3] 0
x[6,3,3,0] 0
x[6,3,3,1] 0
x[6,3,3,2] 0
x[6,3,3,3] 0
x[6,3,4,0] 0
x[6,3,4,1] 0
x[6,3,4,2] 0
x[6,3,4,3] 0
x[6,3,5,0] 0
x[6,3,5,1] 0
x[6,3,5,2] 0
x[6,3,5,3] 0
x[6,3,6,0] 0
x[6,3,6,1] 0
x[6,3,6,2] 0
x[6,3,6,3] 0
x[6,3,7,0] 0
x[6,3,7,1] 0
x[6,3,7,2] 0
x[6,3,7,3] 0
x[7,0,0,0] 0
x[7,0,0,1] 0
x[7,0,0,2] 0
x[7,0,0,3] 0
x[7,0,1,0] 0
x[7,0,1,1] 0
x[7,0,1,2] 0
x[7,0,1,3] 0
x[7,0,2,0] 0
x[7,0,2,1] 0
x[7,0,2,2] 0
x[7,0,2,3] 0
x[7,0,3,0] 0
x[7,0,3,1] 0
x[7,0,3,2] 0
x[7,0,3,3] 0
x[7,0,4,0] 0
x[7,0,4,1] 0
x[7,0,4,2] 0
x[7,0,4,3] 0
x[7,0,5,0] 0
x[7,0,5,1] 0
x[7,0,5,2] 0
x[7,0,5,3] 0
x[7,0,6,0] 0
x[7,0,6,1] 0
x[7,0,6,2] 0
x[7,0,6,3] 0
x[7,0,7,0] 0
x[7,0,7,1] 0
x[7,0,7,2] 1
x[7,0,7,3] 0
x[7,1,0,0] 0
x[7,1,0,1] 0
x[7,1,0,2] 0
x[7,1,0,3] 0
x[7,1,1,0] 0
x[7,1,1,1] 0
x[7,1,1,2] 0
x[7,1,1,3] 0
x[7,1,2,0] 0
x[7,1,2,1] 0
x[7,1,2,2] 0
x[7,1,2,3] 0
x[7,1,3,0] 0
x[7,1,3,1] 0
x[7,1,3,2] 0
x[7,1,3,3] 0
x[7,1,4,0] 0
x[7,1,4,1] 0
x[7,1,4,2] 0
x[7,1,4,3] 0
x[7,1,5,0] 0
x[7,1,5,1] 0
x[7,1,5,2] 0
x[7,1,5,3] 0
x[7,1,6,0] 0
x[7,1,6,1] 0
x[7,1,6,2] 0
x[7,1,6,3] 0
x[7,1,7,0] 1
x[7,1,7,1] 0
x[7,1,7,2] 1
x[7,1,7,3] 0
x[7,2,0,0] 0
x[7,2,0,1] 0
x[7,2,0,2] 0
x[7,2,0,3] 0
x[7,2,1,0] 0
x[7,2,1,1] 0
x[7,2,1,2] 0
x[7,2,1,3] 0
x[7,2,2,0] 0
x[7,2,2,1] 0
x[7,2,2,2] 0
x[7,2,2,3] 0
x[7,2,3,0] 0
x[7,2,3,1] 0
x[7,2,3,2] 0
x[7,2,3,3] 0
x[7,2,4,0] 0
x[7,2,4,1] 0
x[7,2,4,2] 0
x[7,2,4,3] 0
x[7,2,5,0] 0
x[7,2,5,1] 0
x[7,2,5,2] 0
x[7,2,5,3] 0
x[7,2,6,0] 0
x[7,2,6,1] 0
x[7,2,6,2] 0
x[7,2,6,3] 0
x[7,2,7,0] 0
x[7,2,7,1] 0
x[7,2,7,2] 0
x[7,2,7,3] 0
x[7,3,0,0] 0
x[7,3,0,1] 0
x[7,3,0,2] 0
x[7,3,0,3] 0
x[7,3,1,0] 0
x[7,3,1,1] 0
x[7,3,1,2] 0
x[7,3,1,3] 0
x[7,3,2,0] 0
x[7,3,2,1] 0
x[7,3,2,2] 0
x[7,3,2,3] 0
x[7,3,3,0] 0
x[7,3,3,1] 0
x[7,3,3,2] 0
x[7,3,3,3] 0
x[7,3,4,0] 0
x[7,3,4,1] 0
x[7,3,4,2] 0
x[7,3,4,3] 0
x[7,3,5,0] 0
x[7,3,5,1] 0
x[7,3,5,2] 0
x[7,3,5,3] 0
x[7,3,6,0] 0
x[7,3,6,1] 0
x[7,3,6,2] 0
x[7,3,6,3] 0
x[7,3,7,0] 0
x[7,3,7,1] 0
x[7,3,7,2] 0
x[7,3,7,3] 0
s[0,0,5] 1445
s[0,0,6] 0
s[0,1,3] 0
s[0,1,4] 1285
s[0,1,6] 0
s[0,2,1] 8.9399999999999636e+02
s[0,2,3] 0
s[0,2,6] 3.5966381388292619e-12
s[0,3,0] 0
s[0,3,1] 0
s[0,3,2] 794
s[1,0,4] 1798
s[1,0,6] 0
s[1,1,4] 0
s[1,1,5] 1703
s[1,1,6] 0
s[1,2,1] 1622
s[1,2,2] 0
s[1,3,0] 1408
s[1,3,2] 0
s[2,0,5] 0
s[2,0,6] 1622
s[2,1,3] 1432
s[2,1,4] 0
s[2,1,5] 0
s[2,2,2] 0
s[2,2,3] 1165
s[2,2,6] 0
s[2,3,0] 1010
s[2,3,1] 0
s[3,0,4] 0
s[3,0,5] 2445
s[3,1,3] 2.3000000000000005e+03
s[3,1,5] 0
s[3,2,2] 2050
s[3,2,4] 0
s[3,3,0] 1963
s[3,3,1] 0
s[4,0,3] 779
s[4,0,5] 0
s[4,1,1] 0
s[4,1,4] 0
s[4,1,5] 694
s[4,2,3] 0
s[4,2,4] 0
s[4,2,6] 608
s[4,3,0] 480
s[4,3,1] 0
s[4,3,2] 0
s[5,0,3] 0
s[5,0,6] 867
s[5,1,4] 747
s[5,1,5] 0
s[5,1,6] 0
s[5,2,2] 625
s[5,2,3] 0
s[5,2,4] 0
s[5,3,1] 480
s[5,3,2] 0
s[5,3,3] 0
s[6,0,4] 0
s[6,0,6] 2.2949999999999945e+03
s[6,1,4] 2.1499999999999945e+03
s[6,1,5] 0
s[6,1,6] 0
s[6,2,2] 1.6829999999999998e+03
s[6,2,4] 0
s[6,3,1] 0
s[6,3,2] 1146
s[7,0,5] 0
s[7,0,6] 3.2059999999999945e+03
s[7,1,4] 0
s[7,1,5] 3.0409999999999945e+03
s[7,1,6] 0
s[7,2,4] 2.7729999999999945e+03
s[7,2,5] 0
s[7,3,2] 2.5159999999999945e+03
s[7,3,3] 0
Z_FO 15652
